c Standarized MaxSat Instance
c{
c "sha1sum": "d8f04053de1b786263e2a4c2d41451d8bec7f20d",
c "nvars": 140,
c "ncls": 1258,
c "total_lits": 2516,
c "nhards": 0,
c "nhard_nlits": 0,
c "nhard_len_stats":
c    { "min": 0,
c      "max": 0,
c      "ave": 0.0000,
c      "stddev": 0.0000 },
c "nsofts": 1258,
c "nsoft_nlits": 2516,
c "nsoft_len_stats":
c    { "min": 2,
c      "max": 2,
c      "ave": 2.0000,
c      "stddev": 0.0000 },
c "nsoft_wts": 1,
c "soft_wt_stats":
c    { "min": 1,
c      "max": 1,
c      "ave": 1.0000,
c      "stddev": 0.0000 }
c}
c------------------------------------------------------------
c strEdges: 125  randomEdges: 504 
c degrees:  1  2 
c girth: Inf max: -43.604516  
c Hgirth mixed MAXCUT instance
c generated from an undirected graph
c to solve unweighted MaxCut
1 45 28 0
1 -45 -28 0
1 112 117 0
1 -112 -117 0
1 112 74 0
1 -112 -74 0
1 136 137 0
1 -136 -137 0
1 136 120 0
1 -136 -120 0
1 57 72 0
1 -57 -72 0
1 86 36 0
1 -86 -36 0
1 86 7 0
1 -86 -7 0
1 87 55 0
1 -87 -55 0
1 87 97 0
1 -87 -97 0
1 4 100 0
1 -4 -100 0
1 4 96 0
1 -4 -96 0
1 84 116 0
1 -84 -116 0
1 84 81 0
1 -84 -81 0
1 51 76 0
1 -51 -76 0
1 51 62 0
1 -51 -62 0
1 47 64 0
1 -47 -64 0
1 47 72 0
1 -47 -72 0
1 10 99 0
1 -10 -99 0
1 18 129 0
1 -18 -129 0
1 108 59 0
1 -108 -59 0
1 108 55 0
1 -108 -55 0
1 118 109 0
1 -118 -109 0
1 118 79 0
1 -118 -79 0
1 77 5 0
1 -77 -5 0
1 77 89 0
1 -77 -89 0
1 123 21 0
1 -123 -21 0
1 123 98 0
1 -123 -98 0
1 111 103 0
1 -111 -103 0
1 111 69 0
1 -111 -69 0
1 119 62 0
1 -119 -62 0
1 119 64 0
1 -119 -64 0
1 127 37 0
1 -127 -37 0
1 127 99 0
1 -127 -99 0
1 50 27 0
1 -50 -27 0
1 42 98 0
1 -42 -98 0
1 42 31 0
1 -42 -31 0
1 26 81 0
1 -26 -81 0
1 131 89 0
1 -131 -89 0
1 131 48 0
1 -131 -48 0
1 82 30 0
1 -82 -30 0
1 101 8 0
1 -101 -8 0
1 104 7 0
1 -104 -7 0
1 104 12 0
1 -104 -12 0
1 140 105 0
1 -140 -105 0
1 140 20 0
1 -140 -20 0
1 2 92 0
1 -2 -92 0
1 2 85 0
1 -2 -85 0
1 126 74 0
1 -126 -74 0
1 126 38 0
1 -126 -38 0
1 114 95 0
1 -114 -95 0
1 114 116 0
1 -114 -116 0
1 39 48 0
1 -39 -48 0
1 39 100 0
1 -39 -100 0
1 73 85 0
1 -73 -85 0
1 32 91 0
1 -32 -91 0
1 32 41 0
1 -32 -41 0
1 13 67 0
1 -13 -67 0
1 13 138 0
1 -13 -138 0
1 122 83 0
1 -122 -83 0
1 122 105 0
1 -122 -105 0
1 107 60 0
1 -107 -60 0
1 107 61 0
1 -107 -61 0
1 34 106 0
1 -34 -106 0
1 34 129 0
1 -34 -129 0
1 46 53 0
1 -46 -53 0
1 46 121 0
1 -46 -121 0
1 63 19 0
1 -63 -19 0
1 75 71 0
1 -75 -71 0
1 75 115 0
1 -75 -115 0
1 88 61 0
1 -88 -61 0
1 88 67 0
1 -88 -67 0
1 14 54 0
1 -14 -54 0
1 14 15 0
1 -14 -15 0
1 29 20 0
1 -29 -20 0
1 29 102 0
1 -29 -102 0
1 49 56 0
1 -49 -56 0
1 130 102 0
1 -130 -102 0
1 130 71 0
1 -130 -71 0
1 68 96 0
1 -68 -96 0
1 68 28 0
1 -68 -28 0
1 135 93 0
1 -135 -93 0
1 135 40 0
1 -135 -40 0
1 90 40 0
1 -90 -40 0
1 90 19 0
1 -90 -19 0
1 70 38 0
1 -70 -38 0
1 70 35 0
1 -70 -35 0
1 80 110 0
1 -80 -110 0
1 80 53 0
1 -80 -53 0
1 58 41 0
1 -58 -41 0
1 6 138 0
1 -6 -138 0
1 6 54 0
1 -6 -54 0
1 3 66 0
1 -3 -66 0
1 3 128 0
1 -3 -128 0
1 17 128 0
1 -17 -128 0
1 17 60 0
1 -17 -60 0
1 1 121 0
1 -1 -121 0
1 1 43 0
1 -1 -43 0
1 134 69 0
1 -134 -69 0
1 134 24 0
1 -134 -24 0
1 113 132 0
1 -113 -132 0
1 113 5 0
1 -113 -5 0
1 52 25 0
1 -52 -25 0
1 52 36 0
1 -52 -36 0
1 139 23 0
1 -139 -23 0
1 22 15 0
1 -22 -15 0
1 22 56 0
1 -22 -56 0
1 33 97 0
1 -33 -97 0
1 33 23 0
1 -33 -23 0
1 124 115 0
1 -124 -115 0
1 44 120 0
1 -44 -120 0
1 44 30 0
1 -44 -30 0
1 9 79 0
1 -9 -79 0
1 9 132 0
1 -9 -132 0
1 65 31 0
1 -65 -31 0
1 133 35 0
1 -133 -35 0
1 133 106 0
1 -133 -106 0
1 78 24 0
1 -78 -24 0
1 78 137 0
1 -78 -137 0
1 16 12 0
1 -16 -12 0
1 16 83 0
1 -16 -83 0
1 125 94 0
1 -125 -94 0
1 125 27 0
1 -125 -27 0
1 11 43 0
1 -11 -43 0
1 11 91 0
1 -11 -91 0
1 103 38 0
1 -103 -38 0
1 42 43 0
1 -42 -43 0
1 86 2 0
1 -86 -2 0
1 27 38 0
1 -27 -38 0
1 14 49 0
1 -14 -49 0
1 52 72 0
1 -52 -72 0
1 64 48 0
1 -64 -48 0
1 51 127 0
1 -51 -127 0
1 108 93 0
1 -108 -93 0
1 63 29 0
1 -63 -29 0
1 107 23 0
1 -107 -23 0
1 65 41 0
1 -65 -41 0
1 47 116 0
1 -47 -116 0
1 5 120 0
1 -5 -120 0
1 104 17 0
1 -104 -17 0
1 56 79 0
1 -56 -79 0
1 71 23 0
1 -71 -23 0
1 14 76 0
1 -14 -76 0
1 47 91 0
1 -47 -91 0
1 135 102 0
1 -135 -102 0
1 13 17 0
1 -13 -17 0
1 140 8 0
1 -140 -8 0
1 4 50 0
1 -4 -50 0
1 8 93 0
1 -8 -93 0
1 131 2 0
1 -131 -2 0
1 13 120 0
1 -13 -120 0
1 113 74 0
1 -113 -74 0
1 103 106 0
1 -103 -106 0
1 57 75 0
1 -57 -75 0
1 86 97 0
1 -86 -97 0
1 29 130 0
1 -29 -130 0
1 124 9 0
1 -124 -9 0
1 124 72 0
1 -124 -72 0
1 114 139 0
1 -114 -139 0
1 84 129 0
1 -84 -129 0
1 67 110 0
1 -67 -110 0
1 81 93 0
1 -81 -93 0
1 58 102 0
1 -58 -102 0
1 106 20 0
1 -106 -20 0
1 127 9 0
1 -127 -9 0
1 11 53 0
1 -11 -53 0
1 11 79 0
1 -11 -79 0
1 26 60 0
1 -26 -60 0
1 100 15 0
1 -100 -15 0
1 111 106 0
1 -111 -106 0
1 64 35 0
1 -64 -35 0
1 1 91 0
1 -1 -91 0
1 98 69 0
1 -98 -69 0
1 88 90 0
1 -88 -90 0
1 126 54 0
1 -126 -54 0
1 82 115 0
1 -82 -115 0
1 73 96 0
1 -73 -96 0
1 133 21 0
1 -133 -21 0
1 134 56 0
1 -134 -56 0
1 73 100 0
1 -73 -100 0
1 20 93 0
1 -20 -93 0
1 68 92 0
1 -68 -92 0
1 42 137 0
1 -42 -137 0
1 137 7 0
1 -137 -7 0
1 98 66 0
1 -98 -66 0
1 26 106 0
1 -26 -106 0
1 59 67 0
1 -59 -67 0
1 133 98 0
1 -133 -98 0
1 50 36 0
1 -50 -36 0
1 34 117 0
1 -34 -117 0
1 118 95 0
1 -118 -95 0
1 33 27 0
1 -33 -27 0
1 60 25 0
1 -60 -25 0
1 85 35 0
1 -85 -35 0
1 22 103 0
1 -22 -103 0
1 63 15 0
1 -63 -15 0
1 54 20 0
1 -54 -20 0
1 65 12 0
1 -65 -12 0
1 135 120 0
1 -135 -120 0
1 81 96 0
1 -81 -96 0
1 75 16 0
1 -75 -16 0
1 82 106 0
1 -82 -106 0
1 2 43 0
1 -2 -43 0
1 107 113 0
1 -107 -113 0
1 140 7 0
1 -140 -7 0
1 81 92 0
1 -81 -92 0
1 3 109 0
1 -3 -109 0
1 4 117 0
1 -4 -117 0
1 118 75 0
1 -118 -75 0
1 46 83 0
1 -46 -83 0
1 2 98 0
1 -2 -98 0
1 86 35 0
1 -86 -35 0
1 56 43 0
1 -56 -43 0
1 135 116 0
1 -135 -116 0
1 125 60 0
1 -125 -60 0
1 128 43 0
1 -128 -43 0
1 99 83 0
1 -99 -83 0
1 72 97 0
1 -72 -97 0
1 51 70 0
1 -51 -70 0
1 133 41 0
1 -133 -41 0
1 131 101 0
1 -131 -101 0
1 87 70 0
1 -87 -70 0
1 68 81 0
1 -68 -81 0
1 129 41 0
1 -129 -41 0
1 125 138 0
1 -125 -138 0
1 65 21 0
1 -65 -21 0
1 136 33 0
1 -136 -33 0
1 73 80 0
1 -73 -80 0
1 29 79 0
1 -29 -79 0
1 84 61 0
1 -84 -61 0
1 36 60 0
1 -36 -60 0
1 123 82 0
1 -123 -82 0
1 64 62 0
1 -64 -62 0
1 55 138 0
1 -55 -138 0
1 58 99 0
1 -58 -99 0
1 51 119 0
1 -51 -119 0
1 64 21 0
1 -64 -21 0
1 116 54 0
1 -116 -54 0
1 59 25 0
1 -59 -25 0
1 33 95 0
1 -33 -95 0
1 89 132 0
1 -89 -132 0
1 98 35 0
1 -98 -35 0
1 105 67 0
1 -105 -67 0
1 62 67 0
1 -62 -67 0
1 44 94 0
1 -44 -94 0
1 84 17 0
1 -84 -17 0
1 49 22 0
1 -49 -22 0
1 126 85 0
1 -126 -85 0
1 28 30 0
1 -28 -30 0
1 61 43 0
1 -61 -43 0
1 61 23 0
1 -61 -23 0
1 114 29 0
1 -114 -29 0
1 95 61 0
1 -95 -61 0
1 49 130 0
1 -49 -130 0
1 107 91 0
1 -107 -91 0
1 85 71 0
1 -85 -71 0
1 123 29 0
1 -123 -29 0
1 131 70 0
1 -131 -70 0
1 4 114 0
1 -4 -114 0
1 135 41 0
1 -135 -41 0
1 45 74 0
1 -45 -74 0
1 86 31 0
1 -86 -31 0
1 80 121 0
1 -80 -121 0
1 2 37 0
1 -2 -37 0
1 4 26 0
1 -4 -26 0
1 136 83 0
1 -136 -83 0
1 98 94 0
1 -98 -94 0
1 72 56 0
1 -72 -56 0
1 1 71 0
1 -1 -71 0
1 112 101 0
1 -112 -101 0
1 18 62 0
1 -18 -62 0
1 29 64 0
1 -29 -64 0
1 49 30 0
1 -49 -30 0
1 98 20 0
1 -98 -20 0
1 131 37 0
1 -131 -37 0
1 136 68 0
1 -136 -68 0
1 108 124 0
1 -108 -124 0
1 77 102 0
1 -77 -102 0
1 17 11 0
1 -17 -11 0
1 32 120 0
1 -32 -120 0
1 83 66 0
1 -83 -66 0
1 127 48 0
1 -127 -48 0
1 47 131 0
1 -47 -131 0
1 46 90 0
1 -46 -90 0
1 30 40 0
1 -30 -40 0
1 80 115 0
1 -80 -115 0
1 30 67 0
1 -30 -67 0
1 32 130 0
1 -32 -130 0
1 3 15 0
1 -3 -15 0
1 6 120 0
1 -6 -120 0
1 49 55 0
1 -49 -55 0
1 26 9 0
1 -26 -9 0
1 113 16 0
1 -113 -16 0
1 39 1 0
1 -39 -1 0
1 34 124 0
1 -34 -124 0
1 27 102 0
1 -27 -102 0
1 137 55 0
1 -137 -55 0
1 116 79 0
1 -116 -79 0
1 45 47 0
1 -45 -47 0
1 82 59 0
1 -82 -59 0
1 104 67 0
1 -104 -67 0
1 1 33 0
1 -1 -33 0
1 18 135 0
1 -18 -135 0
1 64 81 0
1 -64 -81 0
1 104 129 0
1 -104 -129 0
1 90 59 0
1 -90 -59 0
1 134 103 0
1 -134 -103 0
1 138 94 0
1 -138 -94 0
1 114 22 0
1 -114 -22 0
1 140 69 0
1 -140 -69 0
1 34 110 0
1 -34 -110 0
1 118 55 0
1 -118 -55 0
1 104 103 0
1 -104 -103 0
1 127 139 0
1 -127 -139 0
1 91 54 0
1 -91 -54 0
1 4 91 0
1 -4 -91 0
1 101 15 0
1 -101 -15 0
1 2 95 0
1 -2 -95 0
1 39 9 0
1 -39 -9 0
1 136 50 0
1 -136 -50 0
1 99 89 0
1 -99 -89 0
1 96 93 0
1 -96 -93 0
1 39 124 0
1 -39 -124 0
1 14 100 0
1 -14 -100 0
1 44 128 0
1 -44 -128 0
1 129 69 0
1 -129 -69 0
1 125 19 0
1 -125 -19 0
1 130 65 0
1 -130 -65 0
1 105 54 0
1 -105 -54 0
1 46 81 0
1 -46 -81 0
1 62 121 0
1 -62 -121 0
1 130 70 0
1 -130 -70 0
1 76 38 0
1 -76 -38 0
1 70 106 0
1 -70 -106 0
1 81 48 0
1 -81 -48 0
1 113 133 0
1 -113 -133 0
1 60 61 0
1 -60 -61 0
1 135 56 0
1 -135 -56 0
1 3 97 0
1 -3 -97 0
1 135 59 0
1 -135 -59 0
1 58 91 0
1 -58 -91 0
1 44 8 0
1 -44 -8 0
1 29 71 0
1 -29 -71 0
1 88 49 0
1 -88 -49 0
1 63 68 0
1 -63 -68 0
1 33 96 0
1 -33 -96 0
1 5 74 0
1 -5 -74 0
1 137 103 0
1 -137 -103 0
1 106 61 0
1 -106 -61 0
1 45 78 0
1 -45 -78 0
1 129 71 0
1 -129 -71 0
1 16 25 0
1 -16 -25 0
1 75 116 0
1 -75 -116 0
1 3 139 0
1 -3 -139 0
1 44 24 0
1 -44 -24 0
1 22 115 0
1 -22 -115 0
1 62 19 0
1 -62 -19 0
1 140 106 0
1 -140 -106 0
1 18 55 0
1 -18 -55 0
1 40 121 0
1 -40 -121 0
1 55 81 0
1 -55 -81 0
1 4 59 0
1 -4 -59 0
1 77 2 0
1 -77 -2 0
1 26 69 0
1 -26 -69 0
1 126 63 0
1 -126 -63 0
1 3 40 0
1 -3 -40 0
1 108 70 0
1 -108 -70 0
1 75 9 0
1 -75 -9 0
1 78 5 0
1 -78 -5 0
1 88 9 0
1 -88 -9 0
1 119 22 0
1 -119 -22 0
1 111 15 0
1 -111 -15 0
1 97 115 0
1 -97 -115 0
1 36 54 0
1 -36 -54 0
1 26 19 0
1 -26 -19 0
1 42 30 0
1 -42 -30 0
1 127 88 0
1 -127 -88 0
1 84 48 0
1 -84 -48 0
1 114 46 0
1 -114 -46 0
1 136 84 0
1 -136 -84 0
1 64 105 0
1 -64 -105 0
1 88 6 0
1 -88 -6 0
1 137 27 0
1 -137 -27 0
1 9 5 0
1 -9 -5 0
1 51 3 0
1 -51 -3 0
1 119 21 0
1 -119 -21 0
1 67 15 0
1 -67 -15 0
1 135 113 0
1 -135 -113 0
1 83 132 0
1 -83 -132 0
1 63 124 0
1 -63 -124 0
1 116 128 0
1 -116 -128 0
1 77 127 0
1 -77 -127 0
1 29 68 0
1 -29 -68 0
1 73 59 0
1 -73 -59 0
1 26 32 0
1 -26 -32 0
1 134 61 0
1 -134 -61 0
1 33 116 0
1 -33 -116 0
1 111 12 0
1 -111 -12 0
1 109 69 0
1 -109 -69 0
1 64 79 0
1 -64 -79 0
1 18 5 0
1 -18 -5 0
1 22 40 0
1 -22 -40 0
1 109 60 0
1 -109 -60 0
1 113 27 0
1 -113 -27 0
1 87 37 0
1 -87 -37 0
1 84 3 0
1 -84 -3 0
1 92 106 0
1 -92 -106 0
1 127 70 0
1 -127 -70 0
1 58 12 0
1 -58 -12 0
1 87 42 0
1 -87 -42 0
1 84 16 0
1 -84 -16 0
1 21 83 0
1 -21 -83 0
1 2 102 0
1 -2 -102 0
1 98 24 0
1 -98 -24 0
1 60 20 0
1 -60 -20 0
1 80 3 0
1 -80 -3 0
1 77 39 0
1 -77 -39 0
1 84 79 0
1 -84 -79 0
1 117 105 0
1 -117 -105 0
1 50 26 0
1 -50 -26 0
1 57 132 0
1 -57 -132 0
1 70 54 0
1 -70 -54 0
1 86 47 0
1 -86 -47 0
1 131 62 0
1 -131 -62 0
1 90 105 0
1 -90 -105 0
1 127 19 0
1 -127 -19 0
1 72 7 0
1 -72 -7 0
1 67 61 0
1 -67 -61 0
1 125 41 0
1 -125 -41 0
1 88 54 0
1 -88 -54 0
1 22 89 0
1 -22 -89 0
1 1 105 0
1 -1 -105 0
1 36 71 0
1 -36 -71 0
1 51 14 0
1 -51 -14 0
1 92 121 0
1 -92 -121 0
1 14 102 0
1 -14 -102 0
1 52 19 0
1 -52 -19 0
1 50 67 0
1 -50 -67 0
1 140 11 0
1 -140 -11 0
1 44 79 0
1 -44 -79 0
1 112 6 0
1 -112 -6 0
1 57 10 0
1 -57 -10 0
1 6 56 0
1 -6 -56 0
1 45 79 0
1 -45 -79 0
1 123 119 0
1 -123 -119 0
1 129 53 0
1 -129 -53 0
1 104 61 0
1 -104 -61 0
1 111 102 0
1 -111 -102 0
1 52 31 0
1 -52 -31 0
1 63 117 0
1 -63 -117 0
1 45 87 0
1 -45 -87 0
1 18 114 0
1 -18 -114 0
1 129 96 0
1 -129 -96 0
1 10 48 0
1 -10 -48 0
1 57 38 0
1 -57 -38 0
1 116 41 0
1 -116 -41 0
1 58 27 0
1 -58 -27 0
1 138 23 0
1 -138 -23 0
1 137 48 0
1 -137 -48 0
1 86 25 0
1 -86 -25 0
1 6 16 0
1 -6 -16 0
1 50 138 0
1 -50 -138 0
1 100 103 0
1 -100 -103 0
1 96 79 0
1 -96 -79 0
1 114 133 0
1 -114 -133 0
1 84 85 0
1 -84 -85 0
1 6 96 0
1 -6 -96 0
1 2 55 0
1 -2 -55 0
1 133 19 0
1 -133 -19 0
1 38 43 0
1 -38 -43 0
1 9 56 0
1 -9 -56 0
1 10 113 0
1 -10 -113 0
1 77 65 0
1 -77 -65 0
1 113 41 0
1 -113 -41 0
1 140 91 0
1 -140 -91 0
1 135 27 0
1 -135 -27 0
1 119 66 0
1 -119 -66 0
1 91 15 0
1 -91 -15 0
1 5 115 0
1 -5 -115 0
1 82 93 0
1 -82 -93 0
1 13 96 0
1 -13 -96 0
1 18 41 0
1 -18 -41 0
1 45 124 0
1 -45 -124 0
1 134 110 0
1 -134 -110 0
1 89 69 0
1 -89 -69 0
1 123 23 0
1 -123 -23 0
1 28 59 0
1 -28 -59 0
1 118 14 0
1 -118 -14 0
1 80 31 0
1 -80 -31 0
1 88 137 0
1 -88 -137 0
1 45 9 0
1 -45 -9 0
1 51 128 0
1 -51 -128 0
1 36 132 0
1 -36 -132 0
1 106 128 0
1 -106 -128 0
1 83 138 0
1 -83 -138 0
1 17 37 0
1 -17 -37 0
1 17 121 0
1 -17 -121 0
1 28 115 0
1 -28 -115 0
1 115 94 0
1 -115 -94 0
1 86 140 0
1 -86 -140 0
1 129 115 0
1 -129 -115 0
1 133 38 0
1 -133 -38 0
1 126 32 0
1 -126 -32 0
1 40 35 0
1 -40 -35 0
1 71 120 0
1 -71 -120 0
1 104 128 0
1 -104 -128 0
1 17 35 0
1 -17 -35 0
1 129 23 0
1 -129 -23 0
1 122 129 0
1 -122 -129 0
1 104 64 0
1 -104 -64 0
1 39 55 0
1 -39 -55 0
1 136 41 0
1 -136 -41 0
1 84 109 0
1 -84 -109 0
1 33 41 0
1 -33 -41 0
1 81 61 0
1 -81 -61 0
1 46 12 0
1 -46 -12 0
1 36 27 0
1 -36 -27 0
1 86 109 0
1 -86 -109 0
1 55 21 0
1 -55 -21 0
1 85 40 0
1 -85 -40 0
1 108 115 0
1 -108 -115 0
1 11 106 0
1 -11 -106 0
1 101 135 0
1 -101 -135 0
1 113 125 0
1 -113 -125 0
1 75 81 0
1 -75 -81 0
1 133 129 0
1 -133 -129 0
1 70 25 0
1 -70 -25 0
1 107 96 0
1 -107 -96 0
1 112 30 0
1 -112 -30 0
1 86 138 0
1 -86 -138 0
1 87 46 0
1 -87 -46 0
1 86 77 0
1 -86 -77 0
1 52 43 0
1 -52 -43 0
1 114 53 0
1 -114 -53 0
1 120 12 0
1 -120 -12 0
1 124 41 0
1 -124 -41 0
1 88 83 0
1 -88 -83 0
1 122 31 0
1 -122 -31 0
1 58 15 0
1 -58 -15 0
1 54 25 0
1 -54 -25 0
1 84 24 0
1 -84 -24 0
1 42 32 0
1 -42 -32 0
1 50 125 0
1 -50 -125 0
1 18 69 0
1 -18 -69 0
1 55 91 0
1 -55 -91 0
1 87 36 0
1 -87 -36 0
1 18 94 0
1 -18 -94 0
1 88 138 0
1 -88 -138 0
1 87 34 0
1 -87 -34 0
1 72 115 0
1 -72 -115 0
1 119 1 0
1 -119 -1 0
1 50 23 0
1 -50 -23 0
1 76 99 0
1 -76 -99 0
1 39 13 0
1 -39 -13 0
1 3 96 0
1 -3 -96 0
1 78 129 0
1 -78 -129 0
1 28 12 0
1 -28 -12 0
1 112 140 0
1 -112 -140 0
1 114 110 0
1 -114 -110 0
1 76 95 0
1 -76 -95 0
1 47 121 0
1 -47 -121 0
1 18 130 0
1 -18 -130 0
1 21 79 0
1 -21 -79 0
1 26 23 0
1 -26 -23 0
1 134 67 0
1 -134 -67 0
1 119 128 0
1 -119 -128 0
1 78 102 0
1 -78 -102 0
1 49 106 0
1 -49 -106 0
1 68 79 0
1 -68 -79 0
1 63 27 0
1 -63 -27 0
1 49 25 0
1 -49 -25 0
1 5 93 0
1 -5 -93 0
1 55 24 0
1 -55 -24 0
1 78 28 0
1 -78 -28 0
1 126 20 0
1 -126 -20 0
1 16 99 0
1 -16 -99 0
1 127 63 0
1 -127 -63 0
1 100 99 0
1 -100 -99 0
1 57 2 0
1 -57 -2 0
1 70 58 0
1 -70 -58 0
1 113 115 0
1 -113 -115 0
1 68 115 0
1 -68 -115 0
1 4 126 0
1 -4 -126 0
1 56 41 0
1 -56 -41 0
1 44 98 0
1 -44 -98 0
1 114 44 0
1 -114 -44 0
1 14 135 0
1 -14 -135 0
1 133 132 0
1 -133 -132 0
1 72 92 0
1 -72 -92 0
1 104 85 0
1 -104 -85 0
1 99 15 0
1 -99 -15 0
1 123 1 0
1 -123 -1 0
1 90 6 0
1 -90 -6 0
1 127 66 0
1 -127 -66 0
1 18 91 0
1 -18 -91 0
1 57 18 0
1 -57 -18 0
1 119 96 0
1 -119 -96 0
1 119 6 0
1 -119 -6 0
1 28 48 0
1 -28 -48 0
1 11 48 0
1 -11 -48 0
1 57 84 0
1 -57 -84 0
1 39 94 0
1 -39 -94 0
1 99 54 0
1 -99 -54 0
1 140 67 0
1 -140 -67 0
1 57 5 0
1 -57 -5 0
1 77 75 0
1 -77 -75 0
1 50 34 0
1 -50 -34 0
1 57 140 0
1 -57 -140 0
1 18 29 0
1 -18 -29 0
1 123 15 0
1 -123 -15 0
1 9 95 0
1 -9 -95 0
1 64 132 0
1 -64 -132 0
1 124 67 0
1 -124 -67 0
1 7 83 0
1 -7 -83 0
1 95 19 0
1 -95 -19 0
1 111 107 0
1 -111 -107 0
1 9 59 0
1 -9 -59 0
1 76 132 0
1 -76 -132 0
1 103 66 0
1 -103 -66 0
1 111 25 0
1 -111 -25 0
1 123 88 0
1 -123 -88 0
1 68 106 0
1 -68 -106 0
1 10 70 0
1 -10 -70 0
1 3 138 0
1 -3 -138 0
1 10 105 0
1 -10 -105 0
1 78 35 0
1 -78 -35 0
1 82 61 0
1 -82 -61 0
1 126 115 0
1 -126 -115 0
1 4 99 0
1 -4 -99 0
